TOUR_SECTION
1
30
170
96
164
118
86
62
154
149
145
79
13
24
155
183
103
10
21
125
2
7
28
101
31
16
106
117
166
64
148
89
138
8
105
132
188
108
6
156
139
150
169
33
94
104
159
46
174
178
77
107
141
69
37
187
54
128
84
58
70
185
61
194
167
122
36
97
59
120
85
151
175
123
184
143
83
196
72
111
9
119
140
158
26
147
87
44
137
199
39
57
186
100
19
114
38
4
165
95
20
35
22
160
23
45
90
201
182
71
197
49
124
12
74
192
189
98
161
195
152
181
65
14
198
50
113
173
56
27
190
17
42
73
129
116
88
115
134
168
60
5
76
162
102
112
41
177
127
171
131
176
200
99
11
157
53
3
133
75
146
180
193
109
52
135
191
29
34
92
153
91
93
130
18
126
142
81
172
163
43
51
80
55
25
32
121
63
78
47
110
15
136
67
40
82
48
66
144
68
179
-1
EOF